33D32945 STP File, STP Format Version 1.0

SECTION Comment
Name full_16
END

SECTION Graph
Nodes 16
Edges 120
E 16 4 14
E 12 8 14
E 16 3 10
E 12 7 13
E 16 2 3
E 12 6 19
E 12 5 13
E 12 4 16
E 12 3 17
E 12 2 8
E 15 14 13
E 16 14 19
E 16 1 19
E 15 1 17
E 14 1 5
E 13 1 2
E 12 1 19
E 11 1 13
E 10 1 19
E 2 1 10
E 3 1 16
E 4 1 3
E 5 1 1
E 6 1 7
E 7 1 19
E 8 1 17
E 9 1 15
E 6 5 2
E 7 5 7
E 8 5 1
E 16 9 13
E 9 5 6
E 16 8 10
E 16 7 2
E 16 6 16
E 16 5 4
E 12 9 18
E 15 5 19
E 11 9 11
E 15 4 5
E 11 8 15
E 15 3 3
E 11 7 8
E 15 2 16
E 11 6 12
E 11 5 8
E 11 4 8
E 11 3 15
E 11 2 12
E 5 4 6
E 6 4 2
E 7 4 5
E 8 4 1
E 12 11 11
E 9 4 19
E 15 9 16
E 14 11 10
E 15 8 9
E 13 11 16
E 15 7 1
E 16 11 9
E 15 6 2
E 9 8 14
E 15 11 2
E 10 2 15
E 14 6 9
E 14 5 20
E 10 9 10
E 14 4 19
E 10 8 17
E 14 3 6
E 10 7 6
E 14 2 11
E 10 6 1
E 10 5 7
E 10 4 11
E 10 3 8
E 11 10 11
E 13 10 16
E 12 10 6
E 15 10 2
E 14 10 14
E 16 10 20
E 4 3 15
E 5 3 2
E 6 3 4
E 7 3 7
E 8 3 16
E 14 13 8
E 9 3 19
E 8 7 2
E 14 9 3
E 9 7 13
E 14 8 20
E 15 13 2
E 14 7 2
E 16 13 20
E 13 7 18
E 13 6 18
E 13 5 17
E 13 4 20
E 13 3 5
E 13 2 2
E 13 12 10
E 16 12 14
E 14 12 15
E 15 12 18
E 3 2 14
E 4 2 12
E 5 2 7
E 6 2 8
E 7 2 9
E 8 2 2
E 16 15 9
E 9 2 20
E 7 6 1
E 8 6 10
E 9 6 5
E 13 9 16
E 13 8 17
END

SECTION Terminals
Terminals 10
T 2
T 6
T 8
T 10
T 11
T 12
T 13
T 14
T 15
T 16
END

EOF
